c WARNING: for repeatability, setting FPU to use double precision
d VARIABLES            60144        
d CONSTRAINTS          257571       
c ============================[ Problem Statistics ]=============================
c |                                                                             |
c |  Number of variables:         60144                                         |
c |  Number of clauses:          257571                                         |
c |  Parse time:                   0.05 s                                       |
c |                                                                             |
c ============================[ Search Statistics ]==============================
c | Conflicts |          ORIGINAL         |          LEARNT          | Progress |
c |           |    Vars  Clauses Literals |    Limit  Clauses Lit/Cl |          |
c ===============================================================================
c |       100 |   48358   224083   546026 |    82163      100     11 | 19.596 % |
c |       250 |   48358   224083   546026 |    90380      250     43 | 19.596 % |
c |       475 |   48358   224083   546026 |    99418      475     49 | 19.596 % |
c |       812 |   48358   224083   546026 |   109359      812     55 | 19.596 % |
c |      1318 |   48358   224083   546026 |   120295     1318     67 | 19.596 % |
c |      2077 |   48358   224083   546026 |   132325     2077     68 | 19.596 % |
c |      3216 |   48358   224083   546026 |   145558     3216     80 | 19.596 % |
c |      4924 |   48358   224083   546026 |   160113     4924     88 | 19.596 % |
c |      7486 |   48358   224083   546026 |   176125     7486    101 | 19.596 % |
c |     11330 |   48358   224083   546026 |   193737    11330    109 | 19.596 % |
c |     17096 |   48358   224083   546026 |   213111    17096    137 | 19.596 % |
c |     25745 |   48358   224083   546026 |   234422    25745    183 | 19.596 % |
c |     38719 |   48358   224083   546026 |   257865    38719    155 | 19.596 % |
c |     58180 |   48358   224083   546026 |   283651    58180    138 | 19.596 % |
c |     87372 |   48358   224083   546026 |   312016    87372    152 | 19.596 % |
c |    131161 |   48358   224083   546026 |   343218   131161    144 | 19.596 % |
c |    196845 |   48358   224083   546026 |   377540   196845    139 | 19.596 % |
c |    295371 |   48358   224083   546026 |   415294   295371    131 | 19.596 % |
c |    443160 |   48358   224083   546026 |   456823    36223     81 | 19.596 % |
c |    664843 |   48358   224083   546026 |   502506   257906    101 | 19.596 % |
c |    997368 |   48358   224083   546026 |   552756   115848     91 | 19.596 % |
c |   1496156 |   48358   224083   546026 |   608032    78837     69 | 19.596 % |
c ===============================================================================
c restarts              : 3070
c conflicts             : 1599317        (1196 /sec)
c decisions             : 2980086        (0.00 % random) (2228 /sec)
c propagations          : 1466804948     (1096766 /sec)
c conflict literals     : 162038789      (36.45 % deleted)
d RESTARTS             3070
d FAILURES             1599317      
d NODES                2980086      
d BACKTRACKS           2980086      
d PROPAGATIONS         1466804948   
d NOGOODSIZE           101.32 
d MEMORY               406.00 
d TIME                 1337.39 

s UNSATISFIABLE
